
m = 12;

n = 12;

Amin = 57;

Amax = 72;

B = 2736;

lambda = 20.00;

c = 
[[7,3,7,7,8,8,10,8,5,7,4,3],
[5,8,9,7,6,4,7,2,7,5,3,4],
[6,7,6,7,5,5,5,8,4,10,4,10],
[5,4,7,8,7,7,7,10,3,5,7,7],
[7,10,6,10,4,7,4,7,3,6,10,4],
[9,2,2,9,8,2,8,3,4,2,9,8],
[8,6,7,9,9,10,3,4,10,5,3,10],
[10,3,4,9,8,4,3,4,4,10,3,2],
[10,7,3,2,6,10,8,3,3,4,8,2],
[2,7,4,10,2,3,7,10,3,10,9,9],
[3,8,9,3,7,8,3,4,3,2,4,7],
[9,10,6,10,2,3,10,2,8,10,8,8]];
